
  32    4
  10   10   10   10

   0   0   0   0   0   7 2 26 27 28 29 30 31 
   2   1   1   2   0   3 25 24 3 
   6   4   5   0   1   2 23 4 
   9   6   3   3   0   2 22 5 
   5   4   0   4   5   3 21 20 6 
   8   1   0   2   1   2 19 7 
   4   6   0   5   5   1 8 
   4   0   1   2   4   1 9 
   2   0   4   4   3   1 10 
   2   6   3   0   5   1 11 
   1   4   6   0   6   3 18 17 12 
   9   5   0   3   6   1 13 
   3   5   4   0   6   1 14 
   1   4   5   0   2   1 15 
   7   5   5   2   0   1 16 
   7   4   1   3   0   1 32
   4   5   5   2   0   1 32
   2   6   3   0   8   1 32
   5   3   0   7   6   1 32
   7   3   4  10   0   1 32
   6   1   2   0   1   1 32
  10   7   0   5   2   1 32
   5   0   5   6   4   1 32
   5   4   3   7   0   1 32
  10   4   7   4   0   1 32
   8   1   0   3   3   1 32
   6   6   5   1   0   1 32
   2   1   8   4   0   1 32
   8   6   0   3   3   1 32
   2   0   6   6   5   1 32
   4   2   2   4   0   1 32
   0   0   0   0   0   0 
